problems/csplib-prob056/sonet-models/noch/O2/lingeling/model_5_1-s2ring03-solution000001.eprime-solution
language ESSENCE' 1.0

letting network_ExplicitWithRepetitionR2_Flag be 6
letting network_ExplicitWithRepetitionR2_Values_Occurrence be
        [[false, false, false, false, false, false, false, false, false, false; int(1..10)],
         [false, false, false, false, false, false, false, false, false, false; int(1..10)],
         [false, false, false, false, false, false, false, false, false, false; int(1..10)],
         [false, false, true, true, true, false, false, true, false, true; int(1..10)],
         [true, false, false, true, true, true, true, false, false, false; int(1..10)],
         [true, true, false, false, true, false, false, false, true, false; int(1..10)],
         [false, false, false, false, false, false, false, false, false, false; int(1..10)],
         [false, false, false, false, false, false, false, false, false, false; int(1..10)],
         [false, false, false, false, false, false, false, false, false, false; int(1..10)],
         [false, false, false, false, false, false, false, false, false, false; int(1..10)],
         [false, false, false, false, false, false, false, false, false, false; int(1..10)],
         [false, false, false, false, false, false, false, false, false, false; int(1..10)],
         [false, false, false, false, false, false, false, false, false, false; int(1..10)],
         [false, false, false, false, false, false, false, false, false, false; int(1..10)],
         [false, false, false, false, false, false, false, false, false, false; int(1..10)],
         [false, false, false, false, false, false, false, false, false, false; int(1..10)],
         [false, false, false, false, false, false, false, false, false, false; int(1..10)],
         [false, false, false, false, false, false, false, false, false, false; int(1..10)],
         [false, false, false, false, false, false, false, false, false, false; int(1..10)],
         [false, false, false, false, false, false, false, false, false, false; int(1..10)],
         [false, false, false, false, false, false, false, false, false, false; int(1..10)],
         [false, false, false, false, false, false, false, false, false, false; int(1..10)],
         [false, false, false, false, false, false, false, false, false, false; int(1..10)],
         [false, false, false, false, false, false, false, false, false, false; int(1..10)],
         [false, false, false, false, false, false, false, false, false, false; int(1..10)],
         [false, false, false, false, false, false, false, false, false, false; int(1..10)],
         [false, false, false, false, false, false, false, false, false, false; int(1..10)],
         [false, false, false, false, false, false, false, false, false, false; int(1..10)],
         [false, false, false, false, false, false, false, false, false, false; int(1..10)],
         [false, false, false, false, false, false, false, false, false, false; int(1..10)],
         [false, false, false, false, false, false, false, false, false, false; int(1..10)],
         [false, false, false, false, false, false, false, false, false, false; int(1..10)],
         [false, false, false, false, false, false, false, false, false, false; int(1..10)],
         [false, false, false, false, false, false, false, false, false, false; int(1..10)],
         [false, false, false, false, false, false, false, false, false, false; int(1..10)],
         [false, false, false, false, false, false, false, false, false, false; int(1..10)]; int(1..36)]
