problems/csplib-prob056/sonet-models/noch/O2/minion/model_5_1-s2ring03-solution000001.solution
language Essence 1.3

letting network be mset({}, {}, {}, {1, 2, 5, 6, 7}, {2, 3, 4, 5, 9}, {4, 6, 8, 10})
$ Here is a simple "visualisation" for the value above.
$ 
$ 
$ 
$  1  2  5  6  7
$  2  3  4  5  9
$  4  6  8 10

